letting n =  10
letting blocks =  [[1, 1], [1, 2], [2, 1], [2, 7], [3, 1], [3, 2], [3, 4], [3, 7], [3, 9], [3, 10], [4, 2], [4, 3], [5, 3], [5, 4], [5, 7], [5, 10], [6, 4], [6, 6], [7, 6], [7, 7], [7, 10], [8, 1], [8, 2], [8, 3], [8, 5], [8, 9], [9, 4], [9, 8], [10, 3], [10, 4], [10, 7], [10, 8]]
